p cnf 7230 17
5467 5587 5703 5857 5859 6014 0
-5587 -6014 0
-5166 -5897 -6019 0
-2200 -5885 -6017 0
-2198 -5883 -6015 0
5166 -6020 0
2200 -6018 0
2198 -6016 0
6019 6020 0
6017 6018 0
6015 6016 0
5897 -6020 0
5885 -6018 0
5883 -6016 0
5170 -6022 0
6013 6014 0
-6013 -6014 0
